30 61
28
5 7 13 35
5 14 22 40
8 14 22 25
8 4 5 40
13 21 17 0
11 7 16 54
11 14 8 21
5 14 4 1
5 4 8 36
3 18 0 22
3 21 14 0
11 17 5 44
11 4 19 21
4 7 0 9
4 5 0 4
7 6 0 16
5 18 3 22
5 3 9 0
3 7 19 29
3 5 27 56
4 18 18 36
4 3 0 0
2 12 16 42
2 6 7 15
5 18 9 3
5 21 0 40
3 17 27 39
3 4 19 25
